width = 15;

n_circuits = 25;

circuit_x = array1d(1..25, [2, 3, 7, 4, 5, 2, 1, 1, 5, 3, 3, 5, 1, 4, 2, 4, 4, 2,
    2, 2, 4, 4, 4, 2, 2]);

circuit_y = array1d(1..25, [11, 2, 10, 8, 9, 7, 4, 6, 4, 8, 1, 5, 3, 12, 6, 2, 11,
    10, 3, 11, 3, 26, 8, 3, 6]);

opt_height = 40;

max_y = 26;

